<?xml version = "1.0" encoding="UTF-8" standalone="yes"?>
<CPLEXSolution version="1.2">
 <header
   problemName="IloCplex"
   solutionName="p0"
   solutionIndex="-1"
   objectiveValue="0"
   solutionTypeValue="3"
   solutionTypeString="primal"
   solutionStatusValue="127"
   solutionStatusString="integer feasible solution"
   solutionMethodString="mip"
   primalFeasible="0"
   dualFeasible="0"
   writeLevel="3"/>
 <quality
   epInt="1.0000000000000001e-05"
   epRHS="9.9999999999999995e-07"
   maxIntInfeas="0"
   maxPrimalInfeas="0"
   maxX="1"
   maxSlack="1"/>
 <variables>
  <variable name="x0_5" index="115" value="1"/>
  <variable name="x1_80" index="290" value="1"/>
  <variable name="x2_78" index="388" value="1"/>
  <variable name="x3_23" index="433" value="1"/>
  <variable name="x4_69" index="579" value="1"/>
  <variable name="x5_97" index="707" value="1"/>
  <variable name="x6_18" index="728" value="1"/>
  <variable name="x7_83" index="893" value="1"/>
  <variable name="x8_12" index="922" value="1"/>
  <variable name="x9_58" index="1068" value="1"/>
  <variable name="x10_20" index="1130" value="1"/>
  <variable name="x11_19" index="1229" value="1"/>
  <variable name="x12_16" index="1326" value="1"/>
  <variable name="x13_49" index="1459" value="1"/>
  <variable name="x14_17" index="1527" value="1"/>
  <variable name="x15_68" index="1678" value="1"/>
  <variable name="x16_99" index="1809" value="1"/>
  <variable name="x17_14" index="1824" value="1"/>
  <variable name="x18_52" index="1962" value="1"/>
  <variable name="x19_64" index="2074" value="1"/>
  <variable name="x20_81" index="2191" value="1"/>
  <variable name="x21_2" index="2212" value="1"/>
  <variable name="x22_13" index="2323" value="1"/>
  <variable name="x23_59" index="2469" value="1"/>
  <variable name="x24_98" index="2608" value="1"/>
  <variable name="x25_91" index="2701" value="1"/>
  <variable name="x26_35" index="2745" value="1"/>
  <variable name="x27_51" index="2861" value="1"/>
  <variable name="x28_94" index="3004" value="1"/>
  <variable name="x29_10" index="3020" value="1"/>
  <variable name="x30_41" index="3151" value="1"/>
  <variable name="x31_45" index="3255" value="1"/>
  <variable name="x32_44" index="3354" value="1"/>
  <variable name="x33_89" index="3499" value="1"/>
  <variable name="x34_86" index="3596" value="1"/>
  <variable name="x35_55" index="3665" value="1"/>
  <variable name="x36_57" index="3767" value="1"/>
  <variable name="x37_73" index="3883" value="1"/>
  <variable name="x38_63" index="3973" value="1"/>
  <variable name="x39_30" index="4040" value="1"/>
  <variable name="x40_15" index="4125" value="1"/>
  <variable name="x41_56" index="4266" value="1"/>
  <variable name="x42_92" index="4402" value="1"/>
  <variable name="x43_24" index="4434" value="1"/>
  <variable name="x44_74" index="4584" value="1"/>
  <variable name="x45_88" index="4698" value="1"/>
  <variable name="x46_25" index="4735" value="1"/>
  <variable name="x47_85" index="4895" value="1"/>
  <variable name="x48_65" index="4975" value="1"/>
  <variable name="x49_77" index="5087" value="1"/>
  <variable name="x50_60" index="5170" value="1"/>
  <variable name="x51_34" index="5244" value="1"/>
  <variable name="x52_72" index="5382" value="1"/>
  <variable name="x53_31" index="5441" value="1"/>
  <variable name="x54_4" index="5514" value="1"/>
  <variable name="x55_33" index="5643" value="1"/>
  <variable name="x56_39" index="5749" value="1"/>
  <variable name="x57_8" index="5818" value="1"/>
  <variable name="x58_70" index="5980" value="1"/>
  <variable name="x59_47" index="6057" value="1"/>
  <variable name="x60_54" index="6164" value="1"/>
  <variable name="x61_75" index="6285" value="1"/>
  <variable name="x62_93" index="6403" value="1"/>
  <variable name="x63_38" index="6448" value="1"/>
  <variable name="x64_48" index="6558" value="1"/>
  <variable name="x65_96" index="6706" value="1"/>
  <variable name="x66_79" index="6789" value="1"/>
  <variable name="x67_43" index="6853" value="1"/>
  <variable name="x68_29" index="6939" value="1"/>
  <variable name="x69_76" index="7086" value="1"/>
  <variable name="x70_40" index="7150" value="1"/>
  <variable name="x71_53" index="7263" value="1"/>
  <variable name="x72_87" index="7397" value="1"/>
  <variable name="x73_0" index="7410" value="1"/>
  <variable name="x74_22" index="7532" value="1"/>
  <variable name="x75_90" index="7700" value="1"/>
  <variable name="x76_95" index="7805" value="1"/>
  <variable name="x77_42" index="7852" value="1"/>
  <variable name="x78_28" index="7938" value="1"/>
  <variable name="x79_50" index="8060" value="1"/>
  <variable name="x80_6" index="8116" value="1"/>
  <variable name="x81_32" index="8242" value="1"/>
  <variable name="x82_66" index="8376" value="1"/>
  <variable name="x83_84" index="8494" value="1"/>
  <variable name="x84_46" index="8556" value="1"/>
  <variable name="x85_62" index="8672" value="1"/>
  <variable name="x86_1" index="8711" value="1"/>
  <variable name="x87_7" index="8817" value="1"/>
  <variable name="x88_36" index="8946" value="1"/>
  <variable name="x89_67" index="9077" value="1"/>
  <variable name="x90_61" index="9171" value="1"/>
  <variable name="x91_82" index="9292" value="1"/>
  <variable name="x92_3" index="9313" value="1"/>
  <variable name="x93_37" index="9447" value="1"/>
  <variable name="x94_27" index="9537" value="1"/>
  <variable name="x95_9" index="9619" value="1"/>
  <variable name="x96_71" index="9781" value="1"/>
  <variable name="x97_11" index="9821" value="1"/>
  <variable name="x98_21" index="9931" value="1"/>
  <variable name="x99_26" index="10036" value="1"/>
  <variable name="u1" index="10111" value="1"/>
  <variable name="u3" index="10113" value="1"/>
  <variable name="u5" index="10115" value="1"/>
  <variable name="u9" index="10119" value="1"/>
 </variables>
</CPLEXSolution>
